p wcnf 408 1056
w -2 2.024252 0
w 2 0.494010 0
w -3 2.632307 0
w 3 0.379895 0
w -5 0.513004 0
w 5 1.949303 0
w -6 1.208423 0
w 6 0.827525 0
w -8 0.702488 0
w 8 1.423511 0
w -9 0.920492 0
w 9 1.086376 0
w -11 1.129320 0
w 11 0.885489 0
w -12 0.409003 0
w 12 2.444972 0
w -14 0.911750 0
w 14 1.096792 0
w -15 0.832274 0
w 15 1.201528 0
w -17 0.441124 0
w 17 2.266935 0
w -18 0.650453 0
w 18 1.537391 0
w -20 0.420266 0
w 20 2.379447 0
w -21 0.603932 0
w 21 1.655814 0
w -23 0.494055 0
w 23 2.024065 0
w -24 1.389562 0
w 24 0.719651 0
w -26 0.952199 0
w 26 1.050201 0
w -27 0.485350 0
w 27 2.060370 0
w -29 1.413325 0
w 29 0.707552 0
w -30 1.382266 0
w 30 0.723450 0
w -32 0.911050 0
w 32 1.097635 0
w -33 0.732082 0
w 33 1.365966 0
w -35 1.668558 0
w 35 0.599320 0
w -37 0.913315 0
w 37 1.094913 0
w -38 1.532130 0
w 38 0.652686 0
w -40 2.364477 0
w 40 0.422927 0
w -41 1.655570 0
w 41 0.604021 0
w -43 0.422036 0
w 43 2.369465 0
w -44 2.358567 0
w 44 0.423986 0
w -46 2.094171 0
w 46 0.477516 0
w -47 1.095631 0
w 47 0.912716 0
w -49 0.377188 0
w 49 2.651200 0
w -50 1.036032 0
w 50 0.965221 0
w -52 1.057200 0
w 52 0.945895 0
w -53 0.851488 0
w 53 1.174414 0
w -55 0.567726 0
w 55 1.761413 0
w -56 2.027534 0
w 56 0.493210 0
w -58 0.402466 0
w 58 2.484682 0
w -59 2.685667 0
w 59 0.372347 0
w -61 1.466118 0
w 61 0.682073 0
w -62 2.009758 0
w 62 0.497572 0
w -64 2.318031 0
w 64 0.431401 0
w -65 0.588646 0
w 65 1.698815 0
w -67 1.088580 0
w 67 0.918628 0
w -68 1.951548 0
w 68 0.512414 0
w -70 0.523252 0
w 70 1.911125 0
w -72 1.727752 0
w 72 0.578787 0
w -73 2.544558 0
w 73 0.392996 0
w -75 0.578088 0
w 75 1.729839 0
w -76 0.696828 0
w 76 1.435075 0
w -78 0.821642 0
w 78 1.217074 0
w -79 1.046942 0
w 79 0.955163 0
w -81 0.708712 0
w 81 1.411011 0
w -82 1.525243 0
w 82 0.655633 0
w -84 0.914960 0
w 84 1.092944 0
w -85 1.865857 0
w 85 0.535947 0
w -87 1.139538 0
w 87 0.877548 0
w -88 1.593607 0
w 88 0.627507 0
w -90 0.951033 0
w 90 1.051488 0
w -91 0.535240 0
w 91 1.868321 0
w -93 0.563909 0
w 93 1.773336 0
w -94 0.851656 0
w 94 1.174183 0
w -96 0.791874 0
w 96 1.262828 0
w -97 2.616773 0
w 97 0.382150 0
w -99 0.622466 0
w 99 1.606512 0
w -100 1.174389 0
w 100 0.851507 0
w -102 0.373294 0
w 102 2.678855 0
w -103 2.015528 0
w 103 0.496148 0
w -105 0.402135 0
w 105 2.486728 0
w -107 0.402745 0
w 107 2.482958 0
w -108 1.327157 0
w 108 0.753490 0
w -110 2.594851 0
w 110 0.385379 0
w -111 0.879655 0
w 111 1.136809 0
w -113 2.068440 0
w 113 0.483456 0
w -114 1.207543 0
w 114 0.828128 0
w -116 1.641040 0
w 116 0.609370 0
w -117 0.847428 0
w 117 1.180042 0
w -119 0.497911 0
w 119 2.008391 0
w -120 1.969860 0
w 120 0.507650 0
w -122 0.866619 0
w 122 1.153910 0
w -123 0.762121 0
w 123 1.312127 0
w -125 0.678086 0
w 125 1.474740 0
w -126 0.390661 0
w 126 2.559764 0
w -128 0.532253 0
w 128 1.878806 0
w -129 2.368596 0
w 129 0.422191 0
w -131 1.660049 0
w 131 0.602392 0
w -132 0.677955 0
w 132 1.475025 0
w -134 0.845530 0
w 134 1.182690 0
w -135 2.481348 0
w 135 0.403007 0
w -137 2.606464 0
w 137 0.383661 0
w -138 1.276972 0
w 138 0.783102 0
w -140 1.022538 0
w 140 0.977958 0
w -142 1.028928 0
w 142 0.971885 0
w -143 0.786426 0
w 143 1.271575 0
w -145 1.398810 0
w 145 0.714893 0
w -146 2.054807 0
w 146 0.486664 0
w -148 0.727944 0
w 148 1.373732 0
w -149 1.944946 0
w 149 0.514153 0
w -151 0.581296 0
w 151 1.720295 0
w -152 2.277701 0
w 152 0.439039 0
w -154 0.506560 0
w 154 1.974099 0
w -155 0.853469 0
w 155 1.171688 0
w -157 0.399346 0
w 157 2.504095 0
w -158 0.898624 0
w 158 1.112812 0
w -160 1.769000 0
w 160 0.565291 0
w -161 1.185532 0
w 161 0.843503 0
w -163 0.434651 0
w 163 2.300695 0
w -164 2.307901 0
w 164 0.433294 0
w -166 1.826771 0
w 166 0.547414 0
w -167 2.097568 0
w 167 0.476743 0
w -169 0.756220 0
w 169 1.322366 0
w -170 1.294468 0
w 170 0.772518 0
w -172 0.475730 0
w 172 2.102034 0
w -173 0.460689 0
w 173 2.170661 0
w -175 0.566296 0
w 175 1.765861 0
w -177 2.497179 0
w 177 0.400452 0
w -178 2.216151 0
w 178 0.451233 0
w -180 0.750112 0
w 180 1.333135 0
w -181 0.896995 0
w 181 1.114833 0
w -183 0.538590 0
w 183 1.856701 0
w -184 0.707663 0
w 184 1.413102 0
w -186 2.135659 0
w 186 0.468240 0
w -187 0.409745 0
w 187 2.440539 0
w -189 2.096415 0
w 189 0.477005 0
w -190 0.441869 0
w 190 2.263116 0
w -192 1.835151 0
w 192 0.544914 0
w -193 1.995577 0
w 193 0.501108 0
w -195 0.609950 0
w 195 1.639478 0
w -196 0.970998 0
w 196 1.029868 0
w -198 1.264382 0
w 198 0.790900 0
w -199 2.466821 0
w 199 0.405380 0
w -201 2.309950 0
w 201 0.432910 0
w -202 0.731344 0
w 202 1.367346 0
w -204 0.476557 0
w 204 2.098383 0
w -205 0.921349 0
w 205 1.085365 0
w -207 2.299766 0
w 207 0.434827 0
w -208 2.367076 0
w 208 0.422462 0
w -210 1.782447 0
w 210 0.561027 0
w -212 0.804758 0
w 212 1.242610 0
w -213 0.662262 0
w 213 1.509977 0
w -215 2.271468 0
w 215 0.440244 0
w -216 0.800855 0
w 216 1.248666 0
w -218 0.914921 0
w 218 1.092990 0
w -219 1.680485 0
w 219 0.595066 0
w -221 1.844959 0
w 221 0.542018 0
w -222 1.074238 0
w 222 0.930893 0
w -224 1.186020 0
w 224 0.843156 0
w -225 2.125645 0
w 225 0.470445 0
w -227 1.809839 0
w 227 0.552535 0
w -228 0.502271 0
w 228 1.990958 0
w -230 1.129678 0
w 230 0.885208 0
w -231 1.970069 0
w 231 0.507596 0
w -233 0.713678 0
w 233 1.401193 0
w -234 0.902172 0
w 234 1.108436 0
w -236 1.153967 0
w 236 0.866576 0
w -237 1.487307 0
w 237 0.672356 0
w -239 1.133030 0
w 239 0.882589 0
w -240 1.198708 0
w 240 0.834232 0
w -242 1.092533 0
w 242 0.915304 0
w -243 1.070725 0
w 243 0.933947 0
w -245 0.705716 0
w 245 1.417001 0
w -247 1.939074 0
w 247 0.515710 0
w -248 1.752176 0
w 248 0.570719 0
w -250 1.003436 0
w 250 0.996576 0
w -251 2.335687 0
w 251 0.428140 0
w -253 2.036888 0
w 253 0.490945 0
w -254 2.153705 0
w 254 0.464316 0
w -256 1.641906 0
w 256 0.609048 0
w -257 1.049280 0
w 257 0.953034 0
w -259 2.684130 0
w 259 0.372560 0
w -260 0.647362 0
w 260 1.544731 0
w -262 1.227866 0
w 262 0.814421 0
w -263 1.027585 0
w 263 0.973156 0
w -265 0.657539 0
w 265 1.520823 0
w -266 1.106723 0
w 266 0.903569 0
w -268 0.746184 0
w 268 1.340152 0
w -269 0.886982 0
w 269 1.127419 0
w -271 1.715132 0
w 271 0.583046 0
w -272 2.594844 0
w 272 0.385380 0
w -274 0.639223 0
w 274 1.564400 0
w -275 0.379169 0
w 275 2.637348 0
w -277 0.495027 0
w 277 2.020091 0
w -278 1.318696 0
w 278 0.758325 0
w -280 1.372391 0
w 280 0.728655 0
w -282 1.117457 0
w 282 0.894889 0
w -283 0.780138 0
w 283 1.281824 0
w -285 0.480678 0
w 285 2.080393 0
w -286 1.986353 0
w 286 0.503435 0
w -288 0.382184 0
w 288 2.616538 0
w -289 2.235240 0
w 289 0.447379 0
w -291 1.215341 0
w 291 0.822815 0
w -292 0.861234 0
w 292 1.161125 0
w -294 0.790134 0
w 294 1.265608 0
w -295 1.819839 0
w 295 0.549499 0
w -297 0.880730 0
w 297 1.135422 0
w -298 0.512608 0
w 298 1.950807 0
w -300 0.419304 0
w 300 2.384904 0
w -301 0.384056 0
w 301 2.603789 0
w -303 1.437952 0
w 303 0.695433 0
w -304 2.497949 0
w 304 0.400329 0
w -306 0.852420 0
w 306 1.173131 0
w -307 0.459442 0
w 307 2.176553 0
w -309 1.804737 0
w 309 0.554097 0
w -310 0.497540 0
w 310 2.009888 0
w -312 0.875039 0
w 312 1.142806 0
w -313 1.523441 0
w 313 0.656409 0
w -315 1.098463 0
w 315 0.910363 0
w -317 2.256188 0
w 317 0.443225 0
w -318 0.395713 0
w 318 2.527082 0
w -320 2.118217 0
w 320 0.472095 0
w -321 0.608700 0
w 321 1.642844 0
w -323 1.347619 0
w 323 0.742049 0
w -324 1.347148 0
w 324 0.742309 0
w -326 0.470576 0
w 326 2.125055 0
w -327 0.840422 0
w 327 1.189879 0
w -329 1.142825 0
w 329 0.875025 0
w -330 2.191457 0
w 330 0.456318 0
w -332 0.717486 0
w 332 1.393755 0
w -333 0.709212 0
w 333 1.410017 0
w -335 2.534631 0
w 335 0.394535 0
w -336 0.611529 0
w 336 1.635246 0
w -338 1.710447 0
w 338 0.584642 0
w -339 1.901442 0
w 339 0.525917 0
w -341 0.393980 0
w 341 2.538201 0
w -342 1.175229 0
w 342 0.850898 0
w -344 2.451755 0
w 344 0.407871 0
w -345 1.840262 0
w 345 0.543401 0
w -347 1.657891 0
w 347 0.603176 0
w -348 0.854298 0
w 348 1.170552 0
w -350 2.386863 0
w 350 0.418960 0
w -352 2.068594 0
w 352 0.483420 0
w -353 2.601012 0
w 353 0.384466 0
w -355 0.444455 0
w 355 2.249944 0
w -356 1.061786 0
w 356 0.941809 0
w -358 2.293953 0
w 358 0.435929 0
w -359 0.842962 0
w 359 1.186293 0
w -361 0.568963 0
w 361 1.757584 0
w -362 1.169112 0
w 362 0.855350 0
w -364 0.646830 0
w 364 1.546001 0
w -365 1.643675 0
w 365 0.608393 0
w -367 0.726739 0
w 367 1.376009 0
w -368 1.500776 0
w 368 0.666322 0
w -370 0.830238 0
w 370 1.204475 0
w -371 0.368348 0
w 371 2.714827 0
w -373 0.447950 0
w 373 2.232391 0
w -374 0.758884 0
w 374 1.317724 0
w -376 1.238815 0
w 376 0.807223 0
w -377 2.066546 0
w 377 0.483899 0
w -379 0.504826 0
w 379 1.980879 0
w -380 0.867580 0
w 380 1.152632 0
w -382 0.715820 0
w 382 1.397000 0
w -383 0.568339 0
w 383 1.759514 0
w -385 0.575265 0
w 385 1.738330 0
w -387 0.920112 0
w 387 1.086825 0
w -389 0.418689 0
w 389 2.388407 0
w -391 2.596307 0
w 391 0.385162 0
w -393 0.599156 0
w 393 1.669013 0
w -395 1.056213 0
w 395 0.946778 0
w -397 0.655510 0
w 397 1.525531 0
w -399 1.654220 0
w 399 0.604515 0
w -401 1.016184 0
w 401 0.984074 0
w -403 0.615162 0
w 403 1.625588 0
w -405 0.657792 0
w 405 1.520237 0
w -407 1.457862 0
w 407 0.685936 0
2 1 4 0
2 -1 -4 0
-2 1 -4 0
-2 -1 4 0
3 1 36 0
3 -1 -36 0
-3 1 -36 0
-3 -1 36 0
5 4 7 0
5 -4 -7 0
-5 4 -7 0
-5 -4 7 0
6 4 39 0
6 -4 -39 0
-6 4 -39 0
-6 -4 39 0
8 7 10 0
8 -7 -10 0
-8 7 -10 0
-8 -7 10 0
9 7 42 0
9 -7 -42 0
-9 7 -42 0
-9 -7 42 0
11 10 13 0
11 -10 -13 0
-11 10 -13 0
-11 -10 13 0
12 10 45 0
12 -10 -45 0
-12 10 -45 0
-12 -10 45 0
14 13 16 0
14 -13 -16 0
-14 13 -16 0
-14 -13 16 0
15 13 48 0
15 -13 -48 0
-15 13 -48 0
-15 -13 48 0
17 16 19 0
17 -16 -19 0
-17 16 -19 0
-17 -16 19 0
18 16 51 0
18 -16 -51 0
-18 16 -51 0
-18 -16 51 0
20 19 22 0
20 -19 -22 0
-20 19 -22 0
-20 -19 22 0
21 19 54 0
21 -19 -54 0
-21 19 -54 0
-21 -19 54 0
23 22 25 0
23 -22 -25 0
-23 22 -25 0
-23 -22 25 0
24 22 57 0
24 -22 -57 0
-24 22 -57 0
-24 -22 57 0
26 25 28 0
26 -25 -28 0
-26 25 -28 0
-26 -25 28 0
27 25 60 0
27 -25 -60 0
-27 25 -60 0
-27 -25 60 0
29 28 31 0
29 -28 -31 0
-29 28 -31 0
-29 -28 31 0
30 28 63 0
30 -28 -63 0
-30 28 -63 0
-30 -28 63 0
32 31 34 0
32 -31 -34 0
-32 31 -34 0
-32 -31 34 0
33 31 66 0
33 -31 -66 0
-33 31 -66 0
-33 -31 66 0
35 34 69 0
35 -34 -69 0
-35 34 -69 0
-35 -34 69 0
37 36 39 0
37 -36 -39 0
-37 36 -39 0
-37 -36 39 0
38 36 71 0
38 -36 -71 0
-38 36 -71 0
-38 -36 71 0
40 39 42 0
40 -39 -42 0
-40 39 -42 0
-40 -39 42 0
41 39 74 0
41 -39 -74 0
-41 39 -74 0
-41 -39 74 0
43 42 45 0
43 -42 -45 0
-43 42 -45 0
-43 -42 45 0
44 42 77 0
44 -42 -77 0
-44 42 -77 0
-44 -42 77 0
46 45 48 0
46 -45 -48 0
-46 45 -48 0
-46 -45 48 0
47 45 80 0
47 -45 -80 0
-47 45 -80 0
-47 -45 80 0
49 48 51 0
49 -48 -51 0
-49 48 -51 0
-49 -48 51 0
50 48 83 0
50 -48 -83 0
-50 48 -83 0
-50 -48 83 0
52 51 54 0
52 -51 -54 0
-52 51 -54 0
-52 -51 54 0
53 51 86 0
53 -51 -86 0
-53 51 -86 0
-53 -51 86 0
55 54 57 0
55 -54 -57 0
-55 54 -57 0
-55 -54 57 0
56 54 89 0
56 -54 -89 0
-56 54 -89 0
-56 -54 89 0
58 57 60 0
58 -57 -60 0
-58 57 -60 0
-58 -57 60 0
59 57 92 0
59 -57 -92 0
-59 57 -92 0
-59 -57 92 0
61 60 63 0
61 -60 -63 0
-61 60 -63 0
-61 -60 63 0
62 60 95 0
62 -60 -95 0
-62 60 -95 0
-62 -60 95 0
64 63 66 0
64 -63 -66 0
-64 63 -66 0
-64 -63 66 0
65 63 98 0
65 -63 -98 0
-65 63 -98 0
-65 -63 98 0
67 66 69 0
67 -66 -69 0
-67 66 -69 0
-67 -66 69 0
68 66 101 0
68 -66 -101 0
-68 66 -101 0
-68 -66 101 0
70 69 104 0
70 -69 -104 0
-70 69 -104 0
-70 -69 104 0
72 71 74 0
72 -71 -74 0
-72 71 -74 0
-72 -71 74 0
73 71 106 0
73 -71 -106 0
-73 71 -106 0
-73 -71 106 0
75 74 77 0
75 -74 -77 0
-75 74 -77 0
-75 -74 77 0
76 74 109 0
76 -74 -109 0
-76 74 -109 0
-76 -74 109 0
78 77 80 0
78 -77 -80 0
-78 77 -80 0
-78 -77 80 0
79 77 112 0
79 -77 -112 0
-79 77 -112 0
-79 -77 112 0
81 80 83 0
81 -80 -83 0
-81 80 -83 0
-81 -80 83 0
82 80 115 0
82 -80 -115 0
-82 80 -115 0
-82 -80 115 0
84 83 86 0
84 -83 -86 0
-84 83 -86 0
-84 -83 86 0
85 83 118 0
85 -83 -118 0
-85 83 -118 0
-85 -83 118 0
87 86 89 0
87 -86 -89 0
-87 86 -89 0
-87 -86 89 0
88 86 121 0
88 -86 -121 0
-88 86 -121 0
-88 -86 121 0
90 89 92 0
90 -89 -92 0
-90 89 -92 0
-90 -89 92 0
91 89 124 0
91 -89 -124 0
-91 89 -124 0
-91 -89 124 0
93 92 95 0
93 -92 -95 0
-93 92 -95 0
-93 -92 95 0
94 92 127 0
94 -92 -127 0
-94 92 -127 0
-94 -92 127 0
96 95 98 0
96 -95 -98 0
-96 95 -98 0
-96 -95 98 0
97 95 130 0
97 -95 -130 0
-97 95 -130 0
-97 -95 130 0
99 98 101 0
99 -98 -101 0
-99 98 -101 0
-99 -98 101 0
100 98 133 0
100 -98 -133 0
-100 98 -133 0
-100 -98 133 0
102 101 104 0
102 -101 -104 0
-102 101 -104 0
-102 -101 104 0
103 101 136 0
103 -101 -136 0
-103 101 -136 0
-103 -101 136 0
105 104 139 0
105 -104 -139 0
-105 104 -139 0
-105 -104 139 0
107 106 109 0
107 -106 -109 0
-107 106 -109 0
-107 -106 109 0
108 106 141 0
108 -106 -141 0
-108 106 -141 0
-108 -106 141 0
110 109 112 0
110 -109 -112 0
-110 109 -112 0
-110 -109 112 0
111 109 144 0
111 -109 -144 0
-111 109 -144 0
-111 -109 144 0
113 112 115 0
113 -112 -115 0
-113 112 -115 0
-113 -112 115 0
114 112 147 0
114 -112 -147 0
-114 112 -147 0
-114 -112 147 0
116 115 118 0
116 -115 -118 0
-116 115 -118 0
-116 -115 118 0
117 115 150 0
117 -115 -150 0
-117 115 -150 0
-117 -115 150 0
119 118 121 0
119 -118 -121 0
-119 118 -121 0
-119 -118 121 0
120 118 153 0
120 -118 -153 0
-120 118 -153 0
-120 -118 153 0
122 121 124 0
122 -121 -124 0
-122 121 -124 0
-122 -121 124 0
123 121 156 0
123 -121 -156 0
-123 121 -156 0
-123 -121 156 0
125 124 127 0
125 -124 -127 0
-125 124 -127 0
-125 -124 127 0
126 124 159 0
126 -124 -159 0
-126 124 -159 0
-126 -124 159 0
128 127 130 0
128 -127 -130 0
-128 127 -130 0
-128 -127 130 0
129 127 162 0
129 -127 -162 0
-129 127 -162 0
-129 -127 162 0
131 130 133 0
131 -130 -133 0
-131 130 -133 0
-131 -130 133 0
132 130 165 0
132 -130 -165 0
-132 130 -165 0
-132 -130 165 0
134 133 136 0
134 -133 -136 0
-134 133 -136 0
-134 -133 136 0
135 133 168 0
135 -133 -168 0
-135 133 -168 0
-135 -133 168 0
137 136 139 0
137 -136 -139 0
-137 136 -139 0
-137 -136 139 0
138 136 171 0
138 -136 -171 0
-138 136 -171 0
-138 -136 171 0
140 139 174 0
140 -139 -174 0
-140 139 -174 0
-140 -139 174 0
142 141 144 0
142 -141 -144 0
-142 141 -144 0
-142 -141 144 0
143 141 176 0
143 -141 -176 0
-143 141 -176 0
-143 -141 176 0
145 144 147 0
145 -144 -147 0
-145 144 -147 0
-145 -144 147 0
146 144 179 0
146 -144 -179 0
-146 144 -179 0
-146 -144 179 0
148 147 150 0
148 -147 -150 0
-148 147 -150 0
-148 -147 150 0
149 147 182 0
149 -147 -182 0
-149 147 -182 0
-149 -147 182 0
151 150 153 0
151 -150 -153 0
-151 150 -153 0
-151 -150 153 0
152 150 185 0
152 -150 -185 0
-152 150 -185 0
-152 -150 185 0
154 153 156 0
154 -153 -156 0
-154 153 -156 0
-154 -153 156 0
155 153 188 0
155 -153 -188 0
-155 153 -188 0
-155 -153 188 0
157 156 159 0
157 -156 -159 0
-157 156 -159 0
-157 -156 159 0
158 156 191 0
158 -156 -191 0
-158 156 -191 0
-158 -156 191 0
160 159 162 0
160 -159 -162 0
-160 159 -162 0
-160 -159 162 0
161 159 194 0
161 -159 -194 0
-161 159 -194 0
-161 -159 194 0
163 162 165 0
163 -162 -165 0
-163 162 -165 0
-163 -162 165 0
164 162 197 0
164 -162 -197 0
-164 162 -197 0
-164 -162 197 0
166 165 168 0
166 -165 -168 0
-166 165 -168 0
-166 -165 168 0
167 165 200 0
167 -165 -200 0
-167 165 -200 0
-167 -165 200 0
169 168 171 0
169 -168 -171 0
-169 168 -171 0
-169 -168 171 0
170 168 203 0
170 -168 -203 0
-170 168 -203 0
-170 -168 203 0
172 171 174 0
172 -171 -174 0
-172 171 -174 0
-172 -171 174 0
173 171 206 0
173 -171 -206 0
-173 171 -206 0
-173 -171 206 0
175 174 209 0
175 -174 -209 0
-175 174 -209 0
-175 -174 209 0
177 176 179 0
177 -176 -179 0
-177 176 -179 0
-177 -176 179 0
178 176 211 0
178 -176 -211 0
-178 176 -211 0
-178 -176 211 0
180 179 182 0
180 -179 -182 0
-180 179 -182 0
-180 -179 182 0
181 179 214 0
181 -179 -214 0
-181 179 -214 0
-181 -179 214 0
183 182 185 0
183 -182 -185 0
-183 182 -185 0
-183 -182 185 0
184 182 217 0
184 -182 -217 0
-184 182 -217 0
-184 -182 217 0
186 185 188 0
186 -185 -188 0
-186 185 -188 0
-186 -185 188 0
187 185 220 0
187 -185 -220 0
-187 185 -220 0
-187 -185 220 0
189 188 191 0
189 -188 -191 0
-189 188 -191 0
-189 -188 191 0
190 188 223 0
190 -188 -223 0
-190 188 -223 0
-190 -188 223 0
192 191 194 0
192 -191 -194 0
-192 191 -194 0
-192 -191 194 0
193 191 226 0
193 -191 -226 0
-193 191 -226 0
-193 -191 226 0
195 194 197 0
195 -194 -197 0
-195 194 -197 0
-195 -194 197 0
196 194 229 0
196 -194 -229 0
-196 194 -229 0
-196 -194 229 0
198 197 200 0
198 -197 -200 0
-198 197 -200 0
-198 -197 200 0
199 197 232 0
199 -197 -232 0
-199 197 -232 0
-199 -197 232 0
201 200 203 0
201 -200 -203 0
-201 200 -203 0
-201 -200 203 0
202 200 235 0
202 -200 -235 0
-202 200 -235 0
-202 -200 235 0
204 203 206 0
204 -203 -206 0
-204 203 -206 0
-204 -203 206 0
205 203 238 0
205 -203 -238 0
-205 203 -238 0
-205 -203 238 0
207 206 209 0
207 -206 -209 0
-207 206 -209 0
-207 -206 209 0
208 206 241 0
208 -206 -241 0
-208 206 -241 0
-208 -206 241 0
210 209 244 0
210 -209 -244 0
-210 209 -244 0
-210 -209 244 0
212 211 214 0
212 -211 -214 0
-212 211 -214 0
-212 -211 214 0
213 211 246 0
213 -211 -246 0
-213 211 -246 0
-213 -211 246 0
215 214 217 0
215 -214 -217 0
-215 214 -217 0
-215 -214 217 0
216 214 249 0
216 -214 -249 0
-216 214 -249 0
-216 -214 249 0
218 217 220 0
218 -217 -220 0
-218 217 -220 0
-218 -217 220 0
219 217 252 0
219 -217 -252 0
-219 217 -252 0
-219 -217 252 0
221 220 223 0
221 -220 -223 0
-221 220 -223 0
-221 -220 223 0
222 220 255 0
222 -220 -255 0
-222 220 -255 0
-222 -220 255 0
224 223 226 0
224 -223 -226 0
-224 223 -226 0
-224 -223 226 0
225 223 258 0
225 -223 -258 0
-225 223 -258 0
-225 -223 258 0
227 226 229 0
227 -226 -229 0
-227 226 -229 0
-227 -226 229 0
228 226 261 0
228 -226 -261 0
-228 226 -261 0
-228 -226 261 0
230 229 232 0
230 -229 -232 0
-230 229 -232 0
-230 -229 232 0
231 229 264 0
231 -229 -264 0
-231 229 -264 0
-231 -229 264 0
233 232 235 0
233 -232 -235 0
-233 232 -235 0
-233 -232 235 0
234 232 267 0
234 -232 -267 0
-234 232 -267 0
-234 -232 267 0
236 235 238 0
236 -235 -238 0
-236 235 -238 0
-236 -235 238 0
237 235 270 0
237 -235 -270 0
-237 235 -270 0
-237 -235 270 0
239 238 241 0
239 -238 -241 0
-239 238 -241 0
-239 -238 241 0
240 238 273 0
240 -238 -273 0
-240 238 -273 0
-240 -238 273 0
242 241 244 0
242 -241 -244 0
-242 241 -244 0
-242 -241 244 0
243 241 276 0
243 -241 -276 0
-243 241 -276 0
-243 -241 276 0
245 244 279 0
245 -244 -279 0
-245 244 -279 0
-245 -244 279 0
247 246 249 0
247 -246 -249 0
-247 246 -249 0
-247 -246 249 0
248 246 281 0
248 -246 -281 0
-248 246 -281 0
-248 -246 281 0
250 249 252 0
250 -249 -252 0
-250 249 -252 0
-250 -249 252 0
251 249 284 0
251 -249 -284 0
-251 249 -284 0
-251 -249 284 0
253 252 255 0
253 -252 -255 0
-253 252 -255 0
-253 -252 255 0
254 252 287 0
254 -252 -287 0
-254 252 -287 0
-254 -252 287 0
256 255 258 0
256 -255 -258 0
-256 255 -258 0
-256 -255 258 0
257 255 290 0
257 -255 -290 0
-257 255 -290 0
-257 -255 290 0
259 258 261 0
259 -258 -261 0
-259 258 -261 0
-259 -258 261 0
260 258 293 0
260 -258 -293 0
-260 258 -293 0
-260 -258 293 0
262 261 264 0
262 -261 -264 0
-262 261 -264 0
-262 -261 264 0
263 261 296 0
263 -261 -296 0
-263 261 -296 0
-263 -261 296 0
265 264 267 0
265 -264 -267 0
-265 264 -267 0
-265 -264 267 0
266 264 299 0
266 -264 -299 0
-266 264 -299 0
-266 -264 299 0
268 267 270 0
268 -267 -270 0
-268 267 -270 0
-268 -267 270 0
269 267 302 0
269 -267 -302 0
-269 267 -302 0
-269 -267 302 0
271 270 273 0
271 -270 -273 0
-271 270 -273 0
-271 -270 273 0
272 270 305 0
272 -270 -305 0
-272 270 -305 0
-272 -270 305 0
274 273 276 0
274 -273 -276 0
-274 273 -276 0
-274 -273 276 0
275 273 308 0
275 -273 -308 0
-275 273 -308 0
-275 -273 308 0
277 276 279 0
277 -276 -279 0
-277 276 -279 0
-277 -276 279 0
278 276 311 0
278 -276 -311 0
-278 276 -311 0
-278 -276 311 0
280 279 314 0
280 -279 -314 0
-280 279 -314 0
-280 -279 314 0
282 281 284 0
282 -281 -284 0
-282 281 -284 0
-282 -281 284 0
283 281 316 0
283 -281 -316 0
-283 281 -316 0
-283 -281 316 0
285 284 287 0
285 -284 -287 0
-285 284 -287 0
-285 -284 287 0
286 284 319 0
286 -284 -319 0
-286 284 -319 0
-286 -284 319 0
288 287 290 0
288 -287 -290 0
-288 287 -290 0
-288 -287 290 0
289 287 322 0
289 -287 -322 0
-289 287 -322 0
-289 -287 322 0
291 290 293 0
291 -290 -293 0
-291 290 -293 0
-291 -290 293 0
292 290 325 0
292 -290 -325 0
-292 290 -325 0
-292 -290 325 0
294 293 296 0
294 -293 -296 0
-294 293 -296 0
-294 -293 296 0
295 293 328 0
295 -293 -328 0
-295 293 -328 0
-295 -293 328 0
297 296 299 0
297 -296 -299 0
-297 296 -299 0
-297 -296 299 0
298 296 331 0
298 -296 -331 0
-298 296 -331 0
-298 -296 331 0
300 299 302 0
300 -299 -302 0
-300 299 -302 0
-300 -299 302 0
301 299 334 0
301 -299 -334 0
-301 299 -334 0
-301 -299 334 0
303 302 305 0
303 -302 -305 0
-303 302 -305 0
-303 -302 305 0
304 302 337 0
304 -302 -337 0
-304 302 -337 0
-304 -302 337 0
306 305 308 0
306 -305 -308 0
-306 305 -308 0
-306 -305 308 0
307 305 340 0
307 -305 -340 0
-307 305 -340 0
-307 -305 340 0
309 308 311 0
309 -308 -311 0
-309 308 -311 0
-309 -308 311 0
310 308 343 0
310 -308 -343 0
-310 308 -343 0
-310 -308 343 0
312 311 314 0
312 -311 -314 0
-312 311 -314 0
-312 -311 314 0
313 311 346 0
313 -311 -346 0
-313 311 -346 0
-313 -311 346 0
315 314 349 0
315 -314 -349 0
-315 314 -349 0
-315 -314 349 0
317 316 319 0
317 -316 -319 0
-317 316 -319 0
-317 -316 319 0
318 316 351 0
318 -316 -351 0
-318 316 -351 0
-318 -316 351 0
320 319 322 0
320 -319 -322 0
-320 319 -322 0
-320 -319 322 0
321 319 354 0
321 -319 -354 0
-321 319 -354 0
-321 -319 354 0
323 322 325 0
323 -322 -325 0
-323 322 -325 0
-323 -322 325 0
324 322 357 0
324 -322 -357 0
-324 322 -357 0
-324 -322 357 0
326 325 328 0
326 -325 -328 0
-326 325 -328 0
-326 -325 328 0
327 325 360 0
327 -325 -360 0
-327 325 -360 0
-327 -325 360 0
329 328 331 0
329 -328 -331 0
-329 328 -331 0
-329 -328 331 0
330 328 363 0
330 -328 -363 0
-330 328 -363 0
-330 -328 363 0
332 331 334 0
332 -331 -334 0
-332 331 -334 0
-332 -331 334 0
333 331 366 0
333 -331 -366 0
-333 331 -366 0
-333 -331 366 0
335 334 337 0
335 -334 -337 0
-335 334 -337 0
-335 -334 337 0
336 334 369 0
336 -334 -369 0
-336 334 -369 0
-336 -334 369 0
338 337 340 0
338 -337 -340 0
-338 337 -340 0
-338 -337 340 0
339 337 372 0
339 -337 -372 0
-339 337 -372 0
-339 -337 372 0
341 340 343 0
341 -340 -343 0
-341 340 -343 0
-341 -340 343 0
342 340 375 0
342 -340 -375 0
-342 340 -375 0
-342 -340 375 0
344 343 346 0
344 -343 -346 0
-344 343 -346 0
-344 -343 346 0
345 343 378 0
345 -343 -378 0
-345 343 -378 0
-345 -343 378 0
347 346 349 0
347 -346 -349 0
-347 346 -349 0
-347 -346 349 0
348 346 381 0
348 -346 -381 0
-348 346 -381 0
-348 -346 381 0
350 349 384 0
350 -349 -384 0
-350 349 -384 0
-350 -349 384 0
352 351 354 0
352 -351 -354 0
-352 351 -354 0
-352 -351 354 0
353 351 386 0
353 -351 -386 0
-353 351 -386 0
-353 -351 386 0
355 354 357 0
355 -354 -357 0
-355 354 -357 0
-355 -354 357 0
356 354 388 0
356 -354 -388 0
-356 354 -388 0
-356 -354 388 0
358 357 360 0
358 -357 -360 0
-358 357 -360 0
-358 -357 360 0
359 357 390 0
359 -357 -390 0
-359 357 -390 0
-359 -357 390 0
361 360 363 0
361 -360 -363 0
-361 360 -363 0
-361 -360 363 0
362 360 392 0
362 -360 -392 0
-362 360 -392 0
-362 -360 392 0
364 363 366 0
364 -363 -366 0
-364 363 -366 0
-364 -363 366 0
365 363 394 0
365 -363 -394 0
-365 363 -394 0
-365 -363 394 0
367 366 369 0
367 -366 -369 0
-367 366 -369 0
-367 -366 369 0
368 366 396 0
368 -366 -396 0
-368 366 -396 0
-368 -366 396 0
370 369 372 0
370 -369 -372 0
-370 369 -372 0
-370 -369 372 0
371 369 398 0
371 -369 -398 0
-371 369 -398 0
-371 -369 398 0
373 372 375 0
373 -372 -375 0
-373 372 -375 0
-373 -372 375 0
374 372 400 0
374 -372 -400 0
-374 372 -400 0
-374 -372 400 0
376 375 378 0
376 -375 -378 0
-376 375 -378 0
-376 -375 378 0
377 375 402 0
377 -375 -402 0
-377 375 -402 0
-377 -375 402 0
379 378 381 0
379 -378 -381 0
-379 378 -381 0
-379 -378 381 0
380 378 404 0
380 -378 -404 0
-380 378 -404 0
-380 -378 404 0
382 381 384 0
382 -381 -384 0
-382 381 -384 0
-382 -381 384 0
383 381 406 0
383 -381 -406 0
-383 381 -406 0
-383 -381 406 0
385 384 408 0
385 -384 -408 0
-385 384 -408 0
-385 -384 408 0
387 386 388 0
387 -386 -388 0
-387 386 -388 0
-387 -386 388 0
389 388 390 0
389 -388 -390 0
-389 388 -390 0
-389 -388 390 0
391 390 392 0
391 -390 -392 0
-391 390 -392 0
-391 -390 392 0
393 392 394 0
393 -392 -394 0
-393 392 -394 0
-393 -392 394 0
395 394 396 0
395 -394 -396 0
-395 394 -396 0
-395 -394 396 0
397 396 398 0
397 -396 -398 0
-397 396 -398 0
-397 -396 398 0
399 398 400 0
399 -398 -400 0
-399 398 -400 0
-399 -398 400 0
401 400 402 0
401 -400 -402 0
-401 400 -402 0
-401 -400 402 0
403 402 404 0
403 -402 -404 0
-403 402 -404 0
-403 -402 404 0
405 404 406 0
405 -404 -406 0
-405 404 -406 0
-405 -404 406 0
407 406 408 0
407 -406 -408 0
-407 406 -408 0
-407 -406 408 0
